This is Ipopt version 3.14.16, running with linear solver MUMPS 5.7.3.

Number of nonzeros in equality constraint Jacobian...:        0
Number of nonzeros in inequality constraint Jacobian.:        1
Number of nonzeros in Lagrangian Hessian.............:        0

Total number of variables............................:        1
                     variables with only lower bounds:        0
                variables with lower and upper bounds:        1
                     variables with only upper bounds:        0
Total number of equality constraints.................:        0
Total number of inequality constraints...............:        1
        inequality constraints with only lower bounds:        0
   inequality constraints with lower and upper bounds:        1
        inequality constraints with only upper bounds:        0

iter    objective    inf_pr   inf_du lg(mu)  ||d||  lg(rg) alpha_du alpha_pr  ls
   0 -7.4708811e+00 0.00e+00 0.00e+00   0.0 0.00e+00    -  0.00e+00 0.00e+00   0
   1 -1.0024842e+01 0.00e+00 3.96e-03  -2.1 7.93e-03    -  9.98e-01 1.00e+00f  1
   2 -1.0741449e+01 0.00e+00 1.75e-03  -4.1 3.48e-03    -  9.96e-01 1.00e+00f  1
   3 -1.0741449e+01 0.00e+00 3.77e-05  -6.0 7.53e-05    -  1.00e+00 5.00e-01f  2
   4 -1.0741449e+01 0.00e+00 3.27e-05  -6.1 6.55e-05    -  1.00e+00 5.00e-01f  2
   5 -1.0741449e+01 0.00e+00 3.27e-05  -6.1 6.54e-05    -  1.00e+00 1.56e-02f  7
   6 -1.0741449e+01 0.00e+00 3.27e-05  -6.1 6.54e-05    -  1.00e+00 3.91e-03f  9
   7 -1.0741449e+01 0.00e+00 3.27e-05  -6.1 6.54e-05    -  1.00e+00 1.95e-03f 10
   8 -1.0741449e+01 0.00e+00 7.13e+04  -6.1 6.54e-05    -  1.00e+00 2.44e-04f 13
   9 -1.0741449e+01 0.00e+00 7.13e+04  -6.1 1.60e-08    -  1.00e+00 4.88e-04f 12
iter    objective    inf_pr   inf_du lg(mu)  ||d||  lg(rg) alpha_du alpha_pr  ls
  10 -1.0741449e+01 0.00e+00 7.13e+04  -6.1 1.60e-08    -  1.00e+00 9.77e-04f 11
  11 -1.0741449e+01 0.00e+00 7.13e+04  -6.1 1.60e-08    -  1.00e+00 4.88e-04f 12
  12 -1.0745809e+01 0.00e+00 3.09e-03  -6.1 1.42e+05    -  1.39e-05 2.36e-09f  7
  13 -1.0745809e+01 0.00e+00 1.23e-05  -6.6 5.79e-14    -  1.00e+00 1.00e+00f  1
  14 -1.0745809e+01 0.00e+00 9.84e-06  -6.7 4.63e-14    -  1.00e+00 1.00e+00f  1
  15 -1.0745809e+01 0.00e+00 9.84e-06  -6.7 4.63e-14    -  1.00e+00 1.00e+00f  1
  16 -1.0745809e+01 0.00e+00 9.83e-06  -6.7 1.97e-05    -  1.00e+00 1.00e+00f  1
  17 -1.0745809e+01 0.00e+00 9.82e-06  -6.7 1.96e-05    -  1.00e+00 6.25e-02f  5
  18 -1.0745809e+01 0.00e+00 9.82e-06  -6.7 1.96e-05    -  1.00e+00 3.91e-03f  9
  19 -1.0745809e+01 0.00e+00 1.46e+05  -6.7 1.96e-05    -  1.00e+00 1.95e-03f 10
iter    objective    inf_pr   inf_du lg(mu)  ||d||  lg(rg) alpha_du alpha_pr  ls
  20 -1.0745809e+01 0.00e+00 1.46e+05  -6.7 3.84e-08    -  1.00e+00 1.22e-04f 14
  21 -1.0745809e+01 0.00e+00 1.46e+05  -6.7 3.84e-08    -  1.00e+00 1.22e-04f 14
  22 -1.0745809e+01 0.00e+00 1.46e+05  -6.7 3.84e-08    -  1.00e+00 1.22e-04f 14
  23 -1.0745809e+01 0.00e+00 1.46e+05  -6.7 2.92e+05    -  6.77e-06 1.69e-17f 33
  24 -1.0745809e+01 0.00e+00 1.34e+05  -6.7 2.69e+05    -  1.00e+00 1.83e-17f 33
  25 -1.0745809e+01 0.00e+00 4.69e+04  -6.7 2.60e-01    -  1.00e+00 1.90e-11f 33
  26 -1.0745809e+01 0.00e+00 4.69e+04  -6.7 3.12e-02    -  1.00e+00 1.58e-10f 33
  27  4.0524870e-01 0.00e+00 1.57e+05  -6.7 3.12e-02    -  1.00e+00 6.79e-01w  1
  28  4.0524870e-01 0.00e+00 1.05e+04  -6.7 3.20e-10    -  9.33e-01 1.00e+00w  1
  29 -1.9493289e+00 0.00e+00 9.86e-08  -6.7 7.60e-04    -  6.34e-06 1.00e+00w  1
iter    objective    inf_pr   inf_du lg(mu)  ||d||  lg(rg) alpha_du alpha_pr  ls
  30 -1.9493289e+00 0.00e+00 1.20e-06  -9.0 8.67e-14    -  1.00e+00 1.00e+00f  1
  31 -1.9493289e+00 0.00e+00 1.20e-06  -9.0 8.67e-14    -  1.00e+00 1.00e+00f  1
  32 -1.9493289e+00 0.00e+00 1.20e-06  -9.0 8.67e-14    -  1.00e+00 1.00e+00f  1
  33 -1.9493289e+00 0.00e+00 1.19e-06  -9.0 2.38e-06    -  1.00e+00 1.00e+00f  1
  34 -1.9493289e+00 0.00e+00 1.19e-06  -9.0 2.38e-06    -  1.00e+00 1.00e+00f  1
  35 -1.9493289e+00 0.00e+00 1.19e-06  -9.0 2.37e-06    -  1.00e+00 1.00e+00f  1
  36 -1.9493289e+00 0.00e+00 1.18e-06  -9.0 2.36e-06    -  1.00e+00 1.00e+00f  1
  37 -1.9493289e+00 0.00e+00 1.18e-06  -9.0 2.36e-06    -  1.00e+00 1.00e+00f  1
  38 -1.9493289e+00 0.00e+00 1.17e-06  -9.0 2.35e-06    -  1.00e+00 1.00e+00f  1
  39 -1.9493289e+00 0.00e+00 1.17e-06  -9.0 2.34e-06    -  1.00e+00 1.00e+00f  1
iter    objective    inf_pr   inf_du lg(mu)  ||d||  lg(rg) alpha_du alpha_pr  ls
  40 -1.9493289e+00 0.00e+00 1.17e-06  -9.0 2.33e-06    -  1.00e+00 1.00e+00f  1
  41 -1.9493289e+00 0.00e+00 1.16e-06  -9.0 2.33e-06    -  1.00e+00 1.00e+00f  1
  42 -1.9493289e+00 0.00e+00 1.16e-06  -9.0 2.32e-06    -  1.00e+00 1.00e+00f  1
  43 -1.9493289e+00 0.00e+00 1.16e-06  -9.0 2.31e-06    -  1.00e+00 1.00e+00f  1
  44 -1.9493289e+00 0.00e+00 1.15e-06  -9.0 2.31e-06    -  1.00e+00 1.00e+00f  1
  45 -1.9493289e+00 0.00e+00 1.15e-06  -9.0 2.30e-06    -  1.00e+00 1.00e+00f  1
  46 -1.9493289e+00 0.00e+00 1.15e-06  -9.0 2.29e-06    -  1.00e+00 1.00e+00f  1
  47 -1.9493289e+00 0.00e+00 1.14e-06  -9.0 2.29e-06    -  1.00e+00 1.00e+00f  1
  48 -1.9493289e+00 0.00e+00 1.14e-06  -9.0 2.28e-06    -  1.00e+00 1.00e+00f  1
  49 -1.9493289e+00 0.00e+00 1.14e-06  -9.0 2.27e-06    -  1.00e+00 1.00e+00f  1
iter    objective    inf_pr   inf_du lg(mu)  ||d||  lg(rg) alpha_du alpha_pr  ls
  50 -1.9493289e+00 0.00e+00 1.13e-06  -9.0 2.27e-06    -  1.00e+00 1.00e+00f  1
  51 -1.9493289e+00 0.00e+00 1.13e-06  -9.0 2.26e-06    -  1.00e+00 1.00e+00f  1
  52 -1.9493289e+00 0.00e+00 1.13e-06  -9.0 2.25e-06    -  1.00e+00 1.00e+00f  1
  53 -1.9493289e+00 0.00e+00 1.12e-06  -9.0 2.25e-06    -  1.00e+00 1.00e+00f  1
  54 -1.9493289e+00 0.00e+00 1.12e-06  -9.0 2.24e-06    -  1.00e+00 1.00e+00f  1
  55 -1.9493289e+00 0.00e+00 1.12e-06  -9.0 2.24e-06    -  1.00e+00 1.00e+00f  1
  56 -1.9493289e+00 0.00e+00 1.11e-06  -9.0 2.23e-06    -  1.00e+00 1.00e+00f  1
  57 -1.9493289e+00 0.00e+00 1.11e-06  -9.0 2.22e-06    -  1.00e+00 1.00e+00f  1
  58 -1.9493289e+00 0.00e+00 1.11e-06  -9.0 2.22e-06    -  1.00e+00 1.00e+00f  1
  59 -1.9493289e+00 0.00e+00 1.11e-06  -9.0 2.21e-06    -  1.00e+00 1.00e+00f  1
iter    objective    inf_pr   inf_du lg(mu)  ||d||  lg(rg) alpha_du alpha_pr  ls
  60 -1.9493289e+00 0.00e+00 1.10e-06  -9.0 2.21e-06    -  1.00e+00 1.00e+00f  1
  61 -1.9493289e+00 0.00e+00 1.10e-06  -9.0 2.20e-06    -  1.00e+00 1.00e+00f  1
  62 -1.9493289e+00 0.00e+00 1.10e-06  -9.0 2.19e-06    -  1.00e+00 1.00e+00f  1
  63 -1.9493289e+00 0.00e+00 1.09e-06  -9.0 2.19e-06    -  1.00e+00 1.00e+00f  1
  64 -1.9493289e+00 0.00e+00 1.09e-06  -9.0 2.18e-06    -  1.00e+00 1.00e+00f  1
  65 -1.9493289e+00 0.00e+00 1.09e-06  -9.0 2.18e-06    -  1.00e+00 1.00e+00f  1
  66 -1.9493289e+00 0.00e+00 1.09e-06  -9.0 2.17e-06    -  1.00e+00 1.00e+00f  1
  67 -1.9493289e+00 0.00e+00 1.08e-06  -9.0 2.17e-06    -  1.00e+00 1.00e+00f  1
  68 -2.0565219e+00 0.00e+00 1.08e-06  -9.0 2.16e-06    -  1.00e+00 1.00e+00f  1
  69 -2.0565219e+00 0.00e+00 1.08e-06  -9.0 2.15e-06    -  1.00e+00 1.00e+00f  1
iter    objective    inf_pr   inf_du lg(mu)  ||d||  lg(rg) alpha_du alpha_pr  ls
  70 -2.0565219e+00 0.00e+00 1.07e-06  -9.0 2.15e-06    -  1.00e+00 1.00e+00f  1
  71 -2.0680701e+00 0.00e+00 1.07e-06  -9.0 2.14e-06    -  1.00e+00 1.00e+00f  1
  72 -2.0680701e+00 0.00e+00 1.07e-06  -9.0 2.14e-06    -  1.00e+00 1.00e+00f  1
  73 -2.0680701e+00 0.00e+00 1.07e-06  -9.0 2.13e-06    -  1.00e+00 1.00e+00f  1
  74 -2.0680701e+00 0.00e+00 1.06e-06  -9.0 2.13e-06    -  1.00e+00 1.25e-01f  4
  75 -2.0680701e+00 0.00e+00 1.06e-06  -9.0 2.13e-06    -  1.00e+00 3.12e-02f  6
  76 -2.0680701e+00 0.00e+00 8.57e+04  -9.0 2.13e-06    -  1.00e+00 1.56e-02f  7
  77 -2.0680701e+00 0.00e+00 8.57e+04  -9.0 3.32e-08    -  1.00e+00 6.10e-05f 15
  78 -2.0680701e+00 0.00e+00 8.57e+04  -9.0 3.32e-08    -  1.00e+00 6.10e-05f 15
  79 -2.0680701e+00 0.00e+00 8.57e+04  -9.0 3.32e-08    -  1.00e+00 6.10e-05f 15
iter    objective    inf_pr   inf_du lg(mu)  ||d||  lg(rg) alpha_du alpha_pr  ls
  80 -2.0680701e+00 0.00e+00 8.57e+04  -9.0 1.71e+05    -  1.17e-05 9.28e-18f 30
  81 -2.0680701e+00 0.00e+00 7.51e+04  -9.0 2.50e+04    -  1.00e+00 6.36e-17f 30
  82 -2.0680701e+00 0.00e+00 7.51e+04  -9.0 6.85e-03    -  1.00e+00 2.32e-10f 30
  83 -2.0680701e+00 0.00e+00 7.51e+04  -9.0 6.85e-03    -  1.00e+00 2.32e-10f 30
  84  4.0524870e-01 0.00e+00 9.62e+04  -9.0 6.85e-03    -  1.00e+00 1.24e-01w  1
  85  4.0524870e-01 0.00e+00 1.05e+04  -9.0 2.19e-11    -  8.91e-01 1.00e+00w  1
  86  1.4191206e-01 0.00e+00 3.34e-09  -9.0 5.18e-05    -  3.89e-06 1.00e+00w  1

Number of Iterations....: 86

                                   (scaled)                 (unscaled)
Objective...............:   1.4191205896749443e-01    1.4191205896749443e-01
Dual infeasibility......:   3.3357481140748388e-09    3.3357481140748388e-09
Constraint violation....:   0.0000000000000000e+00    0.0000000000000000e+00
Variable bound violation:   0.0000000000000000e+00    0.0000000000000000e+00
Complementarity.........:   9.0877119026270355e-10    9.0877119026270355e-10
Overall NLP error.......:   3.3357481140748388e-09    3.3357481140748388e-09


Number of objective function evaluations             = 636
Number of objective gradient evaluations             = 87
Number of equality constraint evaluations            = 0
Number of inequality constraint evaluations          = 636
Number of equality constraint Jacobian evaluations   = 0
Number of inequality constraint Jacobian evaluations = 87
Number of Lagrangian Hessian evaluations             = 0
Total seconds in IPOPT                               = 4.746

EXIT: Optimal Solution Found.
